%nproc=4
%mem=12gb
#p UB3LYP/def2TZVP IOp(3/76=1000001500) IOp(3/77=0720008500) IOp(3/78=0810010000) scf=(maxconventionalcycles=120,xqc) int=ultrafine
#p EmpiricalDispersion=GD3BJ

CEYSAA_1_opt_5_SPE

-1 5
Fe        -0.05089       -0.07701       -0.44184
O         -1.17983       -1.24232       -1.51998
N         -2.37925       -1.44118       -0.98251
C         -2.58236       -0.91101        0.13575
N         -1.51280       -0.15868        0.68107
O         -1.70737        0.33866        1.80906
C         -3.87656       -1.10617        0.76641
C          2.19803       -1.59107       -0.02763
N          0.99050       -1.27260        0.50519
O          0.77352       -1.71727        1.68075
C          3.19872       -2.40402        0.66814
O         -0.65165        1.38601       -1.59559
C          0.40676        2.64888       -0.00628
N          0.69734        1.39041        0.54078
O          1.38707        1.32564        1.57666
H         -4.49894       -1.71844        0.09998
H         -3.78628       -1.60766        1.74863
H          2.78947       -3.39421        0.93777
H          3.49674       -1.92509        1.61825
O          1.37754       -0.38742       -1.69778
N          2.37649       -1.09606       -1.23339
C          0.89350        3.85518        0.62063
H          0.57988        4.73417        0.03775
N         -0.29845        2.60938       -1.12040
H         -4.38731       -0.14500        0.96672
H          4.07875       -2.52794        0.01964
H          0.51501        3.94714        1.65546
H          1.99629        3.84322        0.70124

