%nproc=4
%mem=12gb
#p UB3LYP/def2TZVP IOp(3/76=1000001500) IOp(3/77=0720008500) IOp(3/78=0810010000) scf=(maxconventionalcycles=120,xqc) int=ultrafine
#p EmpiricalDispersion=GD3BJ

FOFPIB_1_opt_6_SPE

-1 6
Fe         1.01133        0.07738       -0.00962
O          0.88734        1.01893        1.73160
O          1.32209       -0.85361       -1.74287
O          2.36387       -1.21634        0.59545
O          2.08016        1.66419       -0.45945
N         -0.57671       -1.24277        0.58386
O          2.56072        3.70505        0.28289
O          1.36824        2.96981        2.68838
N         -0.75852        1.04562       -0.77256
C          1.40563        2.19575        1.76594
C          2.73446       -2.07837       -0.27812
C          2.09344        2.59365        0.43045
C          2.05796       -1.89854       -1.65586
C         -1.82022       -0.79633        0.29971
C         -1.92053        0.45442       -0.38999
C         -3.18109        0.99817       -0.66107
C         -4.25534       -0.92049        0.34031
C         -0.81610        2.17903       -1.45450
H          0.15308        2.60510       -1.73947
C         -3.19585        2.22112       -1.34563
H         -4.15974        2.69459       -1.56535
C         -4.35090        0.25761       -0.25392
H         -5.33002        0.69823       -0.47116
C         -2.03628        2.79851       -1.74897
H         -2.03262        3.74532       -2.29610
C         -0.46002       -2.42675        1.19320
H          0.57041       -2.73063        1.41078
C         -2.98452       -1.51952        0.64770
C         -2.80982       -2.74913        1.26830
H         -3.69145       -3.33971        1.54231
C         -1.55271       -3.20810        1.53453
H         -1.38802       -4.17280        2.02191
O          3.51047       -2.97729       -0.07802
O          2.23694       -2.71857       -2.53146
H         -5.15695       -1.47542        0.62338

