%nproc=4
%mem=12gb
#p UB3LYP/def2TZVP IOp(3/76=1000001500) IOp(3/77=0720008500) IOp(3/78=0810010000) scf=(maxconventionalcycles=120,xqc) int=ultrafine
#p EmpiricalDispersion=GD3BJ

FUGNIE_1_opt_6_SPE

0 6
Fe        -0.12566       -0.22042       -0.25013
O          1.24749       -1.30471        0.73937
O          0.68642       -1.36529       -1.66366
O          1.14548        1.31885       -0.19054
O         -0.99665        1.16945       -1.41331
O         -1.77695       -1.34012       -0.25165
N          1.88902       -2.12210       -0.05903
N          1.64341       -2.20095       -1.30296
N          0.66714        2.38732       -0.79056
N         -0.42934        2.36689       -1.43199
C          2.95784       -2.94444        0.50216
C          4.11445       -2.09420        0.96481
C          4.72705       -1.28072       -0.11123
C          1.45708        3.62278       -0.71026
C          1.73371        3.97725        0.71291
H          3.24837       -3.63961       -0.30015
H          2.51586       -3.51556        1.33552
H          0.85758        4.38301       -1.23452
H          2.38689        3.44688       -1.27817
H          4.85590       -2.77975        1.41672
H          3.75728       -1.44684        1.78587
H          2.39891        3.20567        1.13927
H          5.59778       -0.71268        0.25777
H          5.07251       -1.90203       -0.95749
H          4.01025       -0.54457       -0.51697
O         -1.04865        0.27749        1.45420
N         -2.55687       -1.06329        0.76499
N         -2.22091       -0.24662        1.65798
C         -3.86025       -1.74761        0.83834
C         -4.72448       -1.36784       -0.33986
C         -4.97239        0.11102       -0.44790
H         -4.29682       -1.43947        1.80021
H         -3.64695       -2.82906        0.86098
H         -5.67535       -1.92300       -0.23651
H         -4.24279       -1.74382       -1.25936
H         -5.65522        0.33976       -1.28284
H         -5.42194        0.52165        0.47419
H         -4.03293        0.65944       -0.63753
C          0.51158        4.11954        1.55732
H          0.76941        4.42786        2.58412
H         -0.18641        4.87435        1.15100
H         -0.03763        3.16460        1.63462
H          2.32059        4.91519        0.70478

