%nproc=4
%mem=12gb
#p UB3LYP/def2TZVP IOp(3/76=1000001500) IOp(3/77=0720008500) IOp(3/78=0810010000) scf=(maxconventionalcycles=120,xqc) int=ultrafine
#p EmpiricalDispersion=GD3BJ

GAVDEN_1_opt_5_SPE

0 5
Fe         0.00000        0.00000        0.00000
O         -4.11133        3.62558       -0.00000
O         -6.14033        2.70503       -0.00000
N         -2.20971        0.01111        0.00000
C         -2.86355        1.17907       -0.00000
H         -2.32082        2.13489       -0.00000
C         -4.25246        1.27086       -0.00000
C         -4.88783        2.64382       -0.00000
C         -4.98074        0.10701        0.00000
H         -6.07231        0.20602        0.00000
C         -4.31670       -1.10518        0.00000
H         -4.85458       -2.05814        0.00000
C         -2.94246       -1.10340        0.00000
H         -2.38259       -2.04900        0.00000
O         -0.00000       -1.50212        1.51753
H          0.69366       -2.18093        1.56269
H         -0.82882       -1.88835        1.83840
O         -0.00000       -1.50212       -1.51753
H          0.69366       -2.18093       -1.56269
H         -0.82882       -1.88835       -1.83840
O          0.00000        1.50212       -1.51753
H         -0.69366        2.18093       -1.56269
H          0.82882        1.88835       -1.83840
O          0.00000        1.50212        1.51753
H         -0.69366        2.18093        1.56269
H          0.82882        1.88835        1.83840
O          4.11133       -3.62558       -0.00000
O          6.14033       -2.70503       -0.00000
N          2.20971       -0.01111        0.00000
C          2.86355       -1.17907       -0.00000
H          2.32082       -2.13489       -0.00000
C          4.25246       -1.27086       -0.00000
C          4.88783       -2.64382       -0.00000
C          4.98074       -0.10701        0.00000
H          6.07231       -0.20602        0.00000
C          4.31670        1.10518        0.00000
H          4.85458        2.05814        0.00000
C          2.94246        1.10340        0.00000
H          2.38259        2.04900        0.00000

