%nproc=4
%mem=12gb
#p UB3LYP/def2TZVP IOp(3/76=1000001500) IOp(3/77=0720008500) IOp(3/78=0810010000) scf=(maxconventionalcycles=120,xqc) int=ultrafine
#p EmpiricalDispersion=GD3BJ

HUJKAY_1_opt_6_SPE

0 6
Fe         0.00494       -0.57907        0.05779
Cl        -0.13372       -0.50261       -2.29167
Cl         0.13550       -0.42900        2.36770
Cl         0.05323       -2.88342        0.01235
N          2.11289       -0.39192       -0.06114
N          2.87980        0.00152        0.97097
H          2.39661        0.09916        1.87176
N         -0.00061        1.59177       -0.01514
N         -0.08925        2.29665       -1.15358
H         -0.13665        1.73550       -2.01618
N         -2.10448       -0.43029        0.18805
C          2.95103       -0.58480       -1.07275
H          2.55796       -0.90508       -2.03681
C          4.25022       -0.31450       -0.66853
H          5.15207       -0.38262       -1.27497
C          4.16813        0.04280        0.63724
H          4.93207        0.32653        1.36058
C          0.05130        2.50210        0.94189
H          0.11911        2.16689        1.97719
C         -0.01745        3.77921        0.42514
H         -0.00148        4.71823        0.97568
C         -0.10582        3.61044       -0.92692
H         -0.17514        4.32548       -1.74647
C         -2.90822       -0.01092        1.16344
H         -2.47676        0.22793        2.13489
N         -2.91493       -0.66271       -0.85869
H         -2.45958       -0.94099       -1.73351
C         -4.21850        0.02455        0.72975
H         -5.09526        0.31766        1.30455
C         -4.18480       -0.39589       -0.56474
H         -4.97598       -0.53031       -1.30211

