%nproc=4
%mem=12gb
#p UB3LYP/def2TZVP IOp(3/76=1000001500) IOp(3/77=0720008500) IOp(3/78=0810010000) scf=(maxconventionalcycles=120,xqc) int=ultrafine
#p EmpiricalDispersion=GD3BJ

KOFKEY_1_opt_6_SPE

0 6
Fe        -0.05297       -0.61020       -0.13124
O         -0.59409        1.07617        0.52370
O          1.36811        0.05077       -1.26969
O          0.02192       -2.31188       -1.23750
O         -0.86617       -1.81208        1.39917
N          1.51674       -0.90729        1.28368
N          1.18322       -1.73176        2.34056
H          1.87753       -1.95152        3.05229
N         -0.46989       -2.98363        3.30992
H         -1.42550       -3.32255        3.28363
H          0.14228       -3.30160        4.05118
N         -1.90133       -0.66591       -1.14982
N         -2.10674       -1.77912       -1.96764
N         -1.10890       -3.78005       -2.55122
H         -1.82991       -3.87191       -3.25976
H         -0.21137       -4.20561       -2.75799
C         -1.69596        1.80307        0.45710
C         -1.74210        3.04001        1.13106
H         -0.84223        3.34788        1.67124
C         -2.88789        3.81135        1.12882
H         -2.90021        4.75954        1.67748
C         -4.02561        3.39461        0.43073
H         -4.92981        4.01089        0.42966
C         -3.98539        2.21548       -0.28082
H         -4.86062        1.88924       -0.85413
C         -2.84111        1.39172       -0.28329
C         -2.87182        0.18066       -1.06487
H         -3.78492       -0.06189       -1.62631
C          2.44756        0.76018       -0.95010
C          2.98996        1.63812       -1.89945
C          4.31569        1.28342        0.52768
H          4.83530        1.13266        1.48120
C          3.11482        0.59463        0.29017
C          2.64535       -0.28827        1.33743
H          3.30445       -0.42709        2.21179
C         -0.08061       -2.17846        2.33037
C         -1.04985       -2.58070       -1.91036
C          4.16247        2.33620       -1.61904
H          4.56539        3.02930       -2.36541
C          4.83568        2.14860       -0.41101
H          5.76432        2.69005       -0.20788
H          2.45550        1.75457       -2.84511

