%nproc=4
%mem=12gb
#p UB3LYP/def2TZVP IOp(3/76=1000001500) IOp(3/77=0720008500) IOp(3/78=0810010000) scf=(maxconventionalcycles=120,xqc) int=ultrafine
#p EmpiricalDispersion=GD3BJ

MALFET04_1_opt_5_SPE

0 5
O         -1.60940       -0.25595        1.67077
C         -1.60552        0.08545        2.80843
C         -3.10208       -0.11420        5.10186
C         -2.84220       -0.27450        3.81686
H         -3.58184       -0.80569        3.20285
H         -4.03622       -0.50508        5.51140
O         -2.73097        0.52218        7.12596
O         -1.11733        1.07595        5.43784
C         -2.27165        0.51886        5.94633
H         -0.87933        0.93192        4.45509
Fe         0.00000        0.00000        0.00000
O          0.89234        1.62342        0.62510
H          0.59876        2.37831        0.08738
H          0.53484        1.76565        1.53254
O         -0.89234       -1.62342       -0.62510
H         -0.59876       -2.37831       -0.08738
H         -0.53484       -1.76565       -1.53254
O         -1.26911        1.30930       -0.80430
H         -1.43177        1.12957       -1.74816
H         -2.11496        1.14200       -0.34477
O          1.26911       -1.30930        0.80430
H          1.43177       -1.12957        1.74816
H          2.11496       -1.14200        0.34477
O         -0.61767        0.69335        3.11320
O          1.60940        0.25595       -1.67077
C          1.60552       -0.08545       -2.80843
C          3.10208        0.11420       -5.10186
C          2.84220        0.27450       -3.81686
H          3.58184        0.80569       -3.20285
H          4.03622        0.50508       -5.51140
O          2.73097       -0.52218       -7.12596
O          1.11733       -1.07595       -5.43784
C          2.27165       -0.51886       -5.94633
H          0.87933       -0.93192       -4.45509
O          0.61767       -0.69335       -3.11320

