%nproc=4
%mem=12gb
#p UB3LYP/def2TZVP IOp(3/76=1000001500) IOp(3/77=0720008500) IOp(3/78=0810010000) scf=(maxconventionalcycles=120,xqc) int=ultrafine
#p EmpiricalDispersion=GD3BJ

NEJBOT_1_opt_5_SPE

2 5
C         -0.62291        0.98402        4.28834
C          0.12888        0.08654        4.97623
C          0.79492       -0.87458        4.28759
H          0.19015        0.13362        6.06887
C         -0.67352        0.89642        2.91181
H         -1.28459        1.60468        2.33811
C          0.69671       -0.88767        2.90954
H          1.22374       -1.66020        2.33451
N         -0.01749       -0.02145        2.21258
Fe         0.00000        0.00000        0.00000
O         -0.27004       -2.10231        0.08239
O         -2.10091        0.28473        0.08542
O          0.27004        2.10231       -0.08239
O          2.10091       -0.28473       -0.08542
N          0.01749        0.02145       -2.21258
C         -0.69671        0.88767       -2.90954
H         -1.22374        1.66020       -2.33451
C          0.67352       -0.89642       -2.91181
H          1.28459       -1.60468       -2.33811
C          0.62291       -0.98402       -4.28834
C         -0.12888       -0.08654       -4.97623
C         -0.79492        0.87458       -4.28759
H         -0.19015       -0.13362       -6.06887
H         -2.65190        0.35307       -0.71183
H         -0.80993       -2.51307        0.77711
H          0.38751        2.63882        0.71921
H         -0.38751       -2.63882       -0.71921
H          2.64709        0.13204       -0.77139
H         -2.64709       -0.13204        0.77139
H          2.65190       -0.35307        0.71183
H         -1.18859        1.77140        4.79457
H          1.40655       -1.63000        4.78871
H          0.80993        2.51307       -0.77711
H          1.18859       -1.77140       -4.79457
H         -1.40655        1.63000       -4.78871

