%nproc=4
%mem=12gb
#p UB3LYP/def2TZVP IOp(3/76=1000001500) IOp(3/77=0720008500) IOp(3/78=0810010000) scf=(maxconventionalcycles=120,xqc) int=ultrafine
#p EmpiricalDispersion=GD3BJ

NUPKIV_1_opt_5_SPE

2 5
Fe         0.04675       -0.09713       -0.04394
N          1.61011       -0.00511       -1.16972
N          1.30352       -1.04037        1.04897
N         -0.72815       -1.51799       -1.07003
N         -1.42344       -0.57484        1.08133
N         -0.90189        1.22538       -1.16578
N          0.37717        1.51505        1.06505
C          2.71488       -0.54398       -0.69970
C          3.98582       -0.66958       -1.33772
C          5.02629       -1.19443       -0.64600
C          2.53480       -1.09815        0.64733
C         -1.83364       -2.06446       -0.61943
C         -2.65263       -3.06927       -1.24356
C         -3.72943       -3.53834       -0.56903
C         -4.06528       -3.07679        0.74682
C         -3.34919       -2.10007        1.35221
C         -2.21490       -1.54188        0.66373
C         -0.90604        2.52924       -0.63629
C         -1.53415        3.64012       -1.23196
C         -1.50970        4.85421       -0.57971
C         -0.89138        4.98490        0.65169
C         -0.24243        3.92201        1.23748
C         -0.24038        2.67884        0.58242
H          1.69793        0.35743       -2.12590
H          1.11615       -1.45277        1.96821
H         -0.39151       -1.88214       -1.96672
H         -1.66986       -0.20705        2.00729
H         -1.87159        0.90215       -1.29002
H         -0.52955        1.22552       -2.12497
H          1.39594        1.66009        1.11807
H          0.11471        1.34203        2.04430
H          4.10899       -0.31439       -2.36590
H          6.01143       -1.28008       -1.11382
H         -2.38925       -3.44198       -2.23756
H         -4.36098       -4.30528       -1.02809
H         -4.93106       -3.51479        1.25251
H         -3.61329       -1.72552        2.34573
H         -2.04463        3.53296       -2.19525
H         -2.00180        5.71870       -1.03463
H         -0.90017        5.95336        1.16041
H          0.26351        4.03774        2.20191
C          4.86904       -1.63759        0.72298
C          3.67369       -1.62141        1.35503
H          5.75149       -2.02334        1.24306
H          3.55462       -1.99250        2.37728

