%nproc=4
%mem=12gb
#p UB3LYP/def2TZVP IOp(3/76=1000001500) IOp(3/77=0720008500) IOp(3/78=0810010000) scf=(maxconventionalcycles=120,xqc) int=ultrafine
#p EmpiricalDispersion=GD3BJ

ODAJUB_1_opt_5_SPE

1 5
Fe         0.00818        0.01490        0.62586
Cl        -0.04639       -0.29827        2.91027
N         -0.04051        0.01591       -1.62555
N          2.07304        0.27653        0.10884
N         -2.09087        0.06465        0.12004
N          0.26039       -2.24521        0.21181
N         -0.17140        2.23551        0.62376
C          1.21567        0.62269       -2.12694
H          1.05050        1.71172       -2.20142
H          1.46113        0.26815       -3.14507
C          2.37119        0.41283       -1.18736
C          3.68558        0.42620       -1.63085
H          3.89843        0.51448       -2.70029
C          4.70821        0.33990       -0.70593
H          5.75116        0.35134       -1.03764
C          4.39823        0.23798        0.62979
H          5.17922        0.17370        1.39239
C          3.07864        0.20174        1.00370
H          2.75845        0.09083        2.04646
C         -1.23215        0.77800       -2.02223
H         -1.47987        0.64326       -3.09267
H         -1.02392        1.84805       -1.86120
C         -2.39959        0.37223       -1.14291
C         -3.71050        0.29940       -1.61134
H         -3.94386        0.53012       -2.65395
C         -4.69513       -0.10854       -0.71832
H         -5.72979       -0.19829       -1.06617
C         -4.38228       -0.37887        0.59292
H         -5.14532       -0.67985        1.31519
C         -3.07306       -0.27839        0.97147
H         -2.73343       -0.48540        1.99414
C         -0.17798       -1.39793       -2.06925
H          0.10763       -1.49196       -3.13431
H         -1.24450       -1.66284       -2.00562
C          0.62836       -2.33421       -1.22523
H          0.50346       -3.37199       -1.59424
H          1.70103       -2.10184       -1.31239
C          1.32810       -2.87680        1.02216
H          1.09794       -2.71616        2.08566
H          2.29264       -2.39878        0.80081
H          1.40186       -3.95810        0.80039
C         -0.99988       -2.96893        0.46750
H         -0.87757       -4.05328        0.28232
H         -1.80662       -2.58776       -0.17291
H         -1.28503       -2.80444        1.51720
C         -0.30234        3.35869        0.66016
C         -0.45559        4.80776        0.71390
H         -0.48924        5.13741        1.76547
H         -1.39100        5.11186        0.21687
H          0.39525        5.29873        0.21440

