%nproc=4
%mem=12gb
#p UB3LYP/def2TZVP IOp(3/76=1000001500) IOp(3/77=0720008500) IOp(3/78=0810010000) scf=(maxconventionalcycles=120,xqc) int=ultrafine
#p EmpiricalDispersion=GD3BJ

QIZMET_1_opt_6_SPE

0 6
Fe         0.05168       -0.43404        0.06561
Cl        -0.01945       -0.55585        2.42719
Cl         0.20831       -2.71153       -0.19103
Cl        -0.08281       -0.00535       -2.23551
N          2.20031       -0.16682        0.02928
N          0.35655        1.69326        0.32386
N         -2.10316       -0.18261        0.10080
C          3.11799       -1.15590        0.17467
H          2.68606       -2.14602        0.35443
C          4.46961       -0.92751        0.08661
C          4.91511        0.36277       -0.16376
C          3.99402        1.37684       -0.31400
C          2.63881        1.08620       -0.21057
C          1.57828        2.12521       -0.37818
H          1.32034        2.18284       -1.45117
H          1.92139        3.11855       -0.03439
C         -0.78321        2.58567        0.01209
C         -2.02168        2.18278        0.79948
H         -2.71708        3.03507        0.83503
H         -1.72496        1.95938        1.84272
C         -2.76675        0.97830        0.27604
C         -4.13285        1.06478        0.02658
C         -4.16791       -1.24238       -0.49167
C         -4.83790       -0.05395       -0.37053
C         -2.81405       -1.27101       -0.25709
H          5.98646        0.57508       -0.23897
H         -5.91203        0.01287       -0.57205
H          5.16843       -1.75838        0.21390
H         -2.22520       -2.18755       -0.37195
H         -0.95961        2.50934       -1.07373
H          0.51018        1.64144        1.34044
H          4.30994        2.40679       -0.50393
H         -4.63517        2.02684        0.16042
H         -0.50991        3.63147        0.25210
H         -4.67798       -2.16392       -0.78544

