%nproc=4
%mem=12gb
#p UB3LYP/def2TZVP IOp(3/76=1000001500) IOp(3/77=0720008500) IOp(3/78=0810010000) scf=(maxconventionalcycles=120,xqc) int=ultrafine
#p EmpiricalDispersion=GD3BJ

RUDFAY_1_opt_6_SPE

-1 6
C         -0.31138       -2.66488       -0.05051
H          0.70253       -3.08882       -0.08417
C         -1.47012       -3.43057       -0.07149
H         -1.39900       -4.52101       -0.13008
C         -2.70937       -2.78809       -0.00982
C         -3.99426       -3.57871        0.00038
H         -4.07134       -4.19102        0.91702
H         -4.03928       -4.27440       -0.85587
H         -4.87788       -2.92193       -0.04378
C         -2.71755       -1.39255        0.05951
H         -3.67079       -0.86212        0.10014
C         -1.51544       -0.69032        0.05437
C         -1.45066        0.78899        0.06499
C         -2.58685        1.58882        0.08967
H         -3.57996        1.13796        0.14650
C         -2.47174        2.98245        0.00411
C         -3.69524        3.84573       -0.05055
H         -4.52417        3.41454        0.53553
H         -4.05251        3.95085       -1.09220
H         -3.49448        4.86116        0.32903
C         -1.18981        3.51781       -0.06137
H         -1.02911        4.59860       -0.12230
C         -0.08366        2.65587       -0.04240
H          0.96061        2.99800       -0.07752
N         -0.32091       -1.32009        0.01259
N         -0.21302        1.32518        0.01278
Fe         1.46834       -0.05554        0.03747
Cl         1.22087       -0.04566       -2.37343
Cl         2.89407       -1.87765        0.00281
Cl         1.27774        0.02536        2.39259
Cl         3.06688        1.62145       -0.06288

