%nproc=4
%mem=12gb
#p UB3LYP/def2TZVP IOp(3/76=1000001500) IOp(3/77=0720008500) IOp(3/78=0810010000) scf=(maxconventionalcycles=120,xqc) int=ultrafine
#p EmpiricalDispersion=GD3BJ

SAVQIR_1_opt_5_SPE

2 5
C          2.65864        0.62603       -1.21487
H          2.12369        1.32167       -1.86528
C          4.01204        0.42665       -1.35211
H          4.56278        0.96832       -2.12595
C          4.65278       -0.45691       -0.50566
H          5.72915       -0.63254       -0.59493
C          3.91272       -1.12423        0.44183
H          4.38211       -1.84424        1.11900
C          2.55361       -0.87957        0.53519
C          1.67855       -1.54499        1.56217
H          1.76804       -0.99603        2.51548
H          2.00792       -2.57916        1.76028
C         -0.16787       -2.70284        0.37995
H          0.28823       -3.61892        0.79355
H         -1.25893       -2.80969        0.49352
C          0.19208       -2.52002       -1.06637
H          1.28340       -2.51181       -1.21129
H         -0.21733       -3.33486       -1.68785
C         -1.77757       -1.19708       -1.84502
H         -1.92864       -0.50096       -2.68982
H         -2.09820       -2.18942       -2.20810
C         -2.62311       -0.73615       -0.70695
C         -3.98064       -0.98171       -0.62065
C         -4.06161        0.29525        1.36447
H         -4.60037        0.73817        2.20663
C         -2.69501        0.48444        1.25603
H         -2.14402        1.06886        1.99547
C         -0.38693        2.48841       -1.90923
C         -0.53882        3.59680       -2.83736
H         -0.32025        3.26703       -3.86674
H         -1.57054        3.98503       -2.80068
C          0.55616        1.81460        2.47525
N          1.93161       -0.00202       -0.28582
N          0.24862       -1.49585        1.14168
H         -0.32661       -1.44029        1.98526
N         -0.33494       -1.18304       -1.50636
H          0.18436       -0.90429       -2.34163
N         -1.97972       -0.02909        0.23984
N         -0.25425        1.62411       -1.18715
N          0.27153        1.24990        1.53352
Fe        -0.02610        0.11535       -0.00874
C         -4.71105       -0.46827        0.41829
H         -5.78676       -0.65480        0.48961
C          0.87113        2.49228        3.71622
H          0.47598        1.91916        4.57180
H          1.96301        2.59774        3.83128
H          0.42098        3.49941        3.72686
H          0.15409        4.41215       -2.56961
H         -4.46411       -1.58390       -1.39661

