%nproc=4
%mem=12gb
#p UB3LYP/def2TZVP IOp(3/76=1000001500) IOp(3/77=0720008500) IOp(3/78=0810010000) scf=(maxconventionalcycles=120,xqc) int=ultrafine
#p EmpiricalDispersion=GD3BJ

SEDQOI_1_opt_6_SPE

-2 6
Fe        -0.83682       -0.00476        0.01476
C         -0.91728        1.51572        1.22504
C         -0.87718       -1.20618        1.53627
C         -0.86420       -1.51711       -1.20861
N          1.20341       -0.00695        0.06618
N         -0.84362       -1.90396        2.45051
N         -0.91204       -2.40076       -1.92498
C          1.92205        1.11684        0.05890
C          3.29028        1.15077       -0.01555
C          3.96537       -0.04476       -0.07274
H          5.06125       -0.05575       -0.14074
C          3.26597       -1.19794       -0.02866
H          3.75620       -2.17607       -0.05964
C          1.90918       -1.13740        0.02909
H          1.30091       -2.04768        0.04036
C         -0.77826        1.25243       -1.45542
N         -0.70108        2.04091       -2.29585
N         -0.93929        2.43673        1.90153
C         -2.74412       -0.03249       -0.09999
N         -3.88302       -0.04400       -0.21209
H          3.80860        2.11386       -0.03496
H          1.32894        2.03620        0.10408

