%nproc=4
%mem=12gb
#p UB3LYP/def2TZVP IOp(3/76=1000001500) IOp(3/77=0720008500) IOp(3/78=0810010000) scf=(maxconventionalcycles=120,xqc) int=ultrafine
#p EmpiricalDispersion=GD3BJ

SESGED_1_opt_5_SPE

0 5
Fe        -0.00000        1.26577        0.00000
O         -1.38896       -0.36458       -0.95526
O          1.38896       -0.36458        0.95526
O          1.53160        0.84520       -1.35569
O          0.98230        2.70777        1.18647
O         -0.98230        2.70777       -1.18647
H          1.91535        2.45179        1.28577
H         -1.91535        2.45179       -1.28576
H          0.58358        2.62048        2.06997
H         -0.58358        2.62049       -2.06997
C          2.61923        0.25603       -0.92775
C          3.81768        0.26606       -1.64552
H          3.82306        0.78337       -2.60958
C         -2.61179       -0.42071       -0.32108
C          2.61179       -0.42071        0.32108
C         -1.24911       -1.01905       -2.20391
C          1.24911       -1.01906        2.20391
H         -1.94636       -0.60125       -2.95411
H          1.94636       -0.60125        2.95411
H         -0.20985       -0.84251       -2.51748
H          0.20985       -0.84251        2.51748
O         -7.24349       -1.48910       -0.10784
C         -4.94996       -0.33430        1.14145
H         -5.89665       -0.30632        1.69014
C         -4.93733       -0.96957       -0.08800
C         -6.15474       -1.51812       -0.65351
H         -6.03296       -1.98891       -1.67059
O         -1.53160        0.84520        1.35569
C         -2.61923        0.25603        0.92775
C         -3.81768        0.26606        1.64552
H         -3.82306        0.78337        2.60958
C         -3.74305       -1.01705       -0.82350
H         -3.74142       -1.52365       -1.79350
O          7.24349       -1.48910        0.10784
C          4.94996       -0.33430       -1.14145
H          5.89665       -0.30632       -1.69014
C          4.93733       -0.96957        0.08800
C          3.74305       -1.01705        0.82350
H          3.74142       -1.52365        1.79350
C          6.15474       -1.51812        0.65351
H          6.03296       -1.98893        1.67058
H         -1.43700       -2.10207       -2.10077
H          1.43700       -2.10207        2.10077

