%nproc=4
%mem=12gb
#p UB3LYP/def2TZVP IOp(3/76=1000001500) IOp(3/77=0720008500) IOp(3/78=0810010000) scf=(maxconventionalcycles=120,xqc) int=ultrafine
#p EmpiricalDispersion=GD3BJ

UHEZOX_1_opt_6_SPE

0 6
C         -2.43004        0.11490       -0.71955
C         -3.33796        0.77340       -1.57564
H         -2.90917        1.36449       -2.38938
C         -4.69642        0.68215       -1.38722
C         -2.96411       -0.67344        0.32512
C         -2.16636       -1.45150        1.25003
H         -2.73039       -2.00065        2.02513
C         -0.21268       -2.34175        2.26413
H          0.07022       -1.65538        3.08602
H         -0.87763       -3.11872        2.68207
C          1.02486       -2.94900        1.64570
H          0.73282       -3.64870        0.84591
H          1.63627       -3.49044        2.39280
C          2.92891       -2.42806        0.20968
H          3.52095       -3.10397        0.86001
H          2.47102       -3.03340       -0.58945
C          3.83940       -1.38473       -0.39401
H          4.24266       -0.71408        0.38969
H          4.70731       -1.91240       -0.82791
C          3.18906       -0.54779       -1.49585
H          2.72020       -1.21222       -2.24058
H          3.95239        0.08057       -1.99102
C          2.33368        1.57514       -0.91855
H          3.21226        1.97745       -1.45618
N         -0.89371       -1.55494        1.22317
N          1.80565       -1.86892        0.99269
H          2.15687       -1.21328        1.70068
N          2.14246        0.30031       -0.92589
O         -1.13861        0.26757       -0.91916
O          0.55385        0.86801        1.21365
Fe         0.38705       -0.57280       -0.12005
Cl         0.31959       -2.23780       -1.84190
C         -5.22592       -0.06910       -0.33769
H         -6.30816       -0.13144       -0.19016
C         -4.36704       -0.73621        0.50326
H         -4.76255       -1.34224        1.32656
C          1.54317        2.53333       -0.18999
C          1.70009        3.89976       -0.47869
H          2.36530        4.19021       -1.30031
C          1.01563        4.86447        0.23273
H          1.12304        5.92379       -0.01713
C          0.20263        4.46452        1.30183
H         -0.33349        5.22144        1.88522
C          0.05432        3.13277        1.62760
H         -0.58372        2.81266        2.45613
C          0.69603        2.12609        0.88228
H         -5.36864        1.21192       -2.07128

