%nproc=4
%mem=12gb
#p UB3LYP/def2TZVP IOp(3/76=1000001500) IOp(3/77=0720008500) IOp(3/78=0810010000) scf=(maxconventionalcycles=120,xqc) int=ultrafine
#p EmpiricalDispersion=GD3BJ

VUBSOA_1_opt_6_SPE

0 6
Fe        -0.02746       -0.00218       -0.10187
O         -1.41246        0.83093        1.07340
O         -1.49955       -0.69992       -1.23651
O          1.29218       -0.92779       -1.23658
O         -0.01157       -1.63787        1.05913
O          1.36363        0.77959        1.13868
O          0.18188        1.62407       -1.21371
C         -2.69805        0.62316        1.03599
C         -3.55796        1.31302        2.13649
C         -3.37598       -0.10950        0.08948
C         -2.77130       -0.69082       -1.05344
C         -3.60764       -1.34933       -2.06859
C          1.98650       -1.97195       -0.99714
C          3.03546       -2.33094       -2.06067
C          1.85796       -2.73333        0.09804
C          0.83500       -2.66658        1.02296
C          1.88439        1.91832        1.09374
C          2.79418        2.30051        2.22880
C          1.64999        2.86194        0.12101
C          0.83659        2.65683       -1.00167
C          0.71191        3.78729       -2.08002
H         -3.50285        2.40659        1.99765
H         -4.60588        0.98747        2.08769
H         -3.13499        1.08647        3.12915
H         -4.46108       -0.18738        0.17948
H         -3.28525       -2.39810       -2.19285
H         -4.67720       -1.32377       -1.81632
H         -3.45596       -0.86318       -3.04880
H          2.51567       -2.60792       -2.99397
H          3.64587       -1.43979       -2.28051
H          2.52307       -3.59849        0.18669
H          3.53297        1.50012        2.40468
H          2.17412        3.81689        0.19178
H         -0.35158        4.06106       -2.17887
H          1.30668        4.67262       -1.81472
H          1.04466        3.38604       -3.05171
C          0.62893       -3.62812        2.15798
H          1.27765       -4.51454        2.08675
H          0.83361       -3.09858        3.10389
H         -0.42803       -3.93929        2.18357
H          3.67996       -3.16193       -1.74069
H          3.31426        3.25173        2.04958
H          2.19530        2.38559        3.15316

