%nproc=4
%mem=12gb
#p UB3LYP/def2TZVP IOp(3/76=1000001500) IOp(3/77=0720008500) IOp(3/78=0810010000) scf=(maxconventionalcycles=120,xqc) int=ultrafine
#p EmpiricalDispersion=GD3BJ

YUXPIT_1_opt_6_SPE

0 6
C          2.93766       -1.53089       -0.10494
H          2.38412       -2.47128       -0.17219
C          4.32341       -1.45470       -0.15607
C          4.94856       -0.25647       -0.06069
H          6.03884       -0.17289       -0.09045
C          4.17766        0.88269        0.08267
C          2.80072        0.77875        0.08634
H          2.16199        1.66695        0.05687
N          2.18748       -0.42318        0.00820
O          0.00745        0.93950        1.49845
Cl         0.00339        1.26716       -1.49704
Cl         4.87033        2.44341        0.24711
Fe        -0.01038       -0.49058       -0.01974
H          0.04385        0.27248        2.22612
H          0.83719        1.44166        1.53167
C         -2.79655        0.76558        0.07710
H         -2.15174        1.64765        0.08580
C         -4.17226        0.88619        0.07987
C         -2.95844       -1.50642       -0.03209
N         -2.19588       -0.41792        0.01425
Cl        -4.85474        2.47404        0.12478
C         -4.97497       -0.24007        0.04175
H         -6.06422       -0.14769        0.04752
C         -4.34148       -1.44755       -0.03781
H         -4.90912       -2.38103       -0.08685
Cl         0.02282       -2.15832       -1.56572
Cl        -0.05455       -1.97670        1.82456
H         -2.41901       -2.45655       -0.08849
H          4.89797       -2.37838       -0.27121

