%nproc=4
%mem=12gb
#p UB3LYP/def2TZVP IOp(3/76=1000001500) IOp(3/77=0720008500) IOp(3/78=0810010000) scf=(maxconventionalcycles=120,xqc) int=ultrafine
#p EmpiricalDispersion=GD3BJ

YUYHOR_1_opt_5_SPE

0 5
Fe        -0.00000        0.14331        0.00000
N          0.18239        1.48751       -1.38408
N         -0.18239        1.48751        1.38408
N          0.25323       -1.32724       -1.34368
N         -0.25323       -1.32724        1.34368
N          1.96084       -0.01328        0.20036
N         -1.96084       -0.01328       -0.20036
C          0.28233        2.25872       -2.22851
C         -0.28233        2.25872        2.22851
C          2.71708        0.49405        1.18881
C         -2.71708        0.49405       -1.18881
H          2.18406        1.12469        1.90735
H         -2.18406        1.12469       -1.90735
C          2.56998       -0.78448       -0.73146
C         -2.56998       -0.78448        0.73146
C          1.66102       -1.30608       -1.81045
C         -1.66102       -1.30608        1.81045
H          1.70309       -0.59980       -2.65815
H         -1.70309       -0.59980        2.65815
C          3.91512       -1.05987       -0.68426
C         -3.91512       -1.05987        0.68426
H          4.36393       -1.69713       -1.45226
H         -4.36393       -1.69713        1.45226
C          4.08009        0.27801        1.28218
C         -4.08009        0.27801       -1.28218
H          4.64561        0.73170        2.09969
H         -4.64561        0.73170       -2.09969
C          4.68472       -0.51977        0.32593
C         -4.68472       -0.51977       -0.32593
H          5.75966       -0.72136        0.36734
H         -5.75966       -0.72136       -0.36734
B          0.43746        3.31503       -3.39444
B         -0.43746        3.31503        3.39444
H          0.84523        4.36263       -2.90217
H         -0.84523        4.36263        2.90218
H          1.24382        2.84519       -4.20207
H         -1.24382        2.84518        4.20208
H         -0.67311        3.45620       -3.91166
H          0.67311        3.45620        3.91166
C         -0.17925       -2.59611       -0.72422
H         -1.27299       -2.66487       -0.84583
C          0.17925       -2.59611        0.72422
H          1.27299       -2.66487        0.84583
H         -0.34414       -1.12266       -2.14682
H          0.34414       -1.12267        2.14682
H          0.25682       -3.47407       -1.23701
H         -0.25682       -3.47407        1.23701
H          1.99273       -2.29448       -2.17671
H         -1.99273       -2.29448        2.17671

