%nproc=4
%mem=12gb
#p UB3LYP/def2TZVP IOp(3/76=1000001500) IOp(3/77=0720008500) IOp(3/78=0810010000) scf=(maxconventionalcycles=120,xqc) int=ultrafine
#p EmpiricalDispersion=GD3BJ

BETCUB_1_opt_2_SPE

0 2
C          2.42037        0.47104       -0.96711
C          1.22824        0.91266       -1.76682
H          1.35885        1.94165       -2.14264
H          1.16245        0.22842       -2.63064
C         -1.17878        0.48643       -1.89387
H         -0.84533       -0.28826       -2.60705
H         -1.50125        1.38201       -2.45198
C         -2.30462       -0.10423       -1.10777
C         -4.25973       -1.31942        0.34412
H         -5.01240       -1.82005        0.95927
C         -2.93445       -1.39578        0.69848
H         -2.58401       -1.95546        1.57322
C         -0.29512        1.91149       -0.11948
C         -0.47151        2.72284        2.13270
H         -0.42007        2.52078        3.20614
C         -0.24701        1.65670        1.25646
Cl         0.35794       -2.47026       -1.42223
Fe         0.15370       -0.98334        0.39506
N          2.20245       -0.40869        0.01974
N         -0.03287        0.77059       -1.00227
N         -1.96452       -0.81210       -0.02102
O          0.01122        0.43870        1.70785
C         -3.61901        0.00973       -1.51500
H         -3.86153        0.59703       -2.40505
C         -4.60440       -0.61048       -0.77457
H         -5.65228       -0.53033       -1.08199
C         -0.59777        3.18082       -0.59307
H         -0.64355        3.36224       -1.67360
C         -0.84301        4.21569        0.28127
H         -1.08529        5.21110       -0.10261
C         -0.76688        3.98416        1.64287
H         -0.94989        4.80243        2.34781
C          3.25236       -0.89594        0.69502
H          3.00822       -1.61058        1.48864
C          4.55307       -0.52735        0.38938
H          5.37954       -0.95779        0.96153
Cl         0.21182       -2.57804        2.00157
C          4.77036        0.38388       -0.60898
H          5.78791        0.70216       -0.85852
C          3.70067        0.88876       -1.29981
H          3.83452        1.61835       -2.10383

