%nproc=4
%mem=12gb
#p UB3LYP/def2TZVP IOp(3/76=1000001500) IOp(3/77=0720008500) IOp(3/78=0810010000) scf=(maxconventionalcycles=120,xqc) int=ultrafine
#p EmpiricalDispersion=GD3BJ

FIKYOP_1_opt_2_SPE

-2 2
Fe         0.91709       -0.05276        0.00311
N          0.65911       -0.56312        3.04932
N          0.55709       -3.07429       -0.56942
N          1.08059        0.61541       -3.01176
N          3.94704       -0.59531        0.10792
N          1.60069        2.92460        0.44676
N         -1.04658        0.29103       -0.01809
N         -3.21679       -0.06141       -0.04680
C          0.80230       -0.38795        1.92707
C          0.67027       -1.94629       -0.35389
C          1.05010        0.33842       -1.90086
C          2.80859       -0.39871        0.06360
C          1.31463        1.81953        0.31227
C         -2.00376       -0.61304       -0.12341
H         -1.80619       -1.67947       -0.25816
C         -1.70399        1.48383        0.13873
H         -1.12930        2.40319        0.25753
C         -3.04320        1.27137        0.12400
H         -3.88392        1.95816        0.22003
C         -4.49802       -0.76712       -0.11918
H         -5.09954       -0.40002       -0.96956
H         -5.07381       -0.62854        0.81292
H         -4.30127       -1.84017       -0.25922

