%nproc=4
%mem=12gb
#p UB3LYP/def2TZVP IOp(3/76=1000001500) IOp(3/77=0720008500) IOp(3/78=0810010000) scf=(maxconventionalcycles=120,xqc) int=ultrafine
#p EmpiricalDispersion=GD3BJ

IWOTOD_1_opt_2_SPE

0 2
Fe         0.22613        0.00235       -0.37671
N         -0.42462        0.34503        1.51909
O         -1.06719       -1.42618       -0.72574
O          1.60064       -1.27476        0.05934
S         -2.40170        0.86483        3.34359
C         -2.40696       -1.39348       -0.58065
C         -3.08564       -2.59614       -0.34980
H         -2.48886       -3.50461       -0.23838
C         -4.47778       -2.61695       -0.24246
H         -4.97408       -3.57283       -0.04188
C         -5.20973       -1.47775       -0.38727
H         -6.30050       -1.49817       -0.30457
C         -4.56370       -0.29391       -0.62531
H         -5.13724        0.63280       -0.73997
C         -3.15444       -0.22158       -0.71937
C          3.61925        0.01491        0.11498
C          5.04835       -0.00717        0.24306
H          5.56974        0.95652        0.18377
C          5.75231       -1.14573        0.42786
H          6.84217       -1.13015        0.51354
C          5.04790       -2.33322        0.51857
H          5.58337       -3.27516        0.68290
C          3.65306       -2.37262        0.42270
H          3.10329       -3.31329        0.50516
C          2.93176       -1.21243        0.19189
C         -1.26620        0.56756        2.24293
N         -1.28761        1.34774       -1.02695
N          1.72410        1.53573       -0.23876
C         -2.55822        1.04564       -1.01097
H         -3.26894        1.85927       -1.23897
C         -0.92736        2.73670       -1.33168
H         -0.40861        2.76065       -2.30926
H         -1.84775        3.33999       -1.42719
C         -0.01565        3.32026       -0.24917
H         -0.38937        3.01763        0.74373
H         -0.09437        4.42100       -0.29799
C          1.42983        2.96889       -0.40611
H          2.03125        3.54597        0.31932
H          1.76717        3.27406       -1.41724
C          2.98632        1.28167       -0.06083
H          3.67562        2.14428       -0.02599
O          0.75806       -0.09809       -2.39274
H          0.07146       -0.72700       -2.69590
H          1.57951       -0.62462       -2.40485

