%nproc=4
%mem=12gb
#p UB3LYP/def2TZVP IOp(3/76=1000001500) IOp(3/77=0720008500) IOp(3/78=0810010000) scf=(maxconventionalcycles=120,xqc) int=ultrafine
#p EmpiricalDispersion=GD3BJ

KADVEU_1_opt_1_SPE

2 1
Fe         0.00000        0.00000        0.00000
O         -0.76161        1.44052       -1.42378
O          0.76161       -1.44052        1.42378
O         -1.69998       -1.27422       -0.40342
O          1.69998        1.27422        0.40342
O         -1.08940        0.97940        1.49075
O          1.08940       -0.97940       -1.49075
H         -0.55086        1.30157        2.23354
H          0.55086       -1.30157       -2.23354
H         -1.56409        1.75939        1.15624
H          1.56409       -1.75939       -1.15624
N         -2.68942        0.61795       -2.24183
N          2.68942       -0.61795        2.24183
H         -2.56426       -0.23767       -1.67885
H          2.56426        0.23767        1.67885
H         -3.51066        0.73323       -2.82824
H          3.51066       -0.73323        2.82824
N         -1.62899       -2.90845        1.14091
N          1.62899        2.90845       -1.14091
H         -0.74079       -2.53366        1.50298
H          0.74079        2.53366       -1.50298
H         -2.04205       -3.73879        1.55453
H          2.04205        3.73879       -1.55453
C         -1.77874        1.55831       -2.15169
C          1.77874       -1.55831        2.15169
C         -1.98149        2.81414       -2.94932
C          1.98149       -2.81414        2.94932
H         -1.90852        3.68723       -2.28022
H          1.90852       -3.68723        2.28022
H         -2.94876        2.84040       -3.47079
H          2.94876       -2.84040        3.47079
H         -1.17543        2.90522       -3.69801
H          1.17543       -2.90522        3.69801
C         -2.18982       -2.30619        0.12191
C          2.18982        2.30619       -0.12191
C         -3.45457       -2.88633       -0.43990
C          3.45457        2.88633        0.43990
H         -4.26137       -2.13691       -0.37165
H          4.26137        2.13691        0.37165
H         -3.77768       -3.80000        0.07904
H          3.77768        3.80000       -0.07904
H         -3.30535       -3.11670       -1.50807
H          3.30535        3.11670        1.50807

