%nproc=4
%mem=12gb
#p UB3LYP/def2TZVP IOp(3/76=1000001500) IOp(3/77=0720008500) IOp(3/78=0810010000) scf=(maxconventionalcycles=120,xqc) int=ultrafine
#p EmpiricalDispersion=GD3BJ

OBUYIT_1_opt_1_SPE

2 1
Fe         1.58599       -0.25417        0.15626
N         -1.15878       -0.98297       -0.93418
N          0.15234       -1.37378       -1.04082
O          2.23357       -2.02482        1.08335
H          1.49186       -2.54744        1.43278
H          2.88029       -1.95196        1.80712
C         -2.01748       -1.93483       -1.39944
C         -1.22102       -2.95386       -1.86927
H         -1.55665       -3.87952       -2.33501
C          0.11522       -2.57055       -1.62595
C         -3.50447       -1.82431       -1.31659
H         -3.88119       -0.85621       -1.68912
H         -3.85814       -1.96128       -0.28051
H         -3.96701       -2.61223       -1.92790
C          1.36182       -3.32681       -1.94905
H          2.09755       -3.25207       -1.13270
H          1.82321       -2.94816       -2.87904
H          1.13915       -4.39101       -2.11491
O          3.05967       -0.30890       -1.38129
H          2.65661       -0.09602       -2.24128
H          3.55009       -1.13868       -1.51878
O          3.03773        0.86320        1.22650
H          3.79041        1.14317        0.67675
H          2.71575        1.66455        1.67348
N         -1.27450        0.16179        1.15556
N         -0.00060       -0.01823        1.64945
N         -0.76218        1.37862       -0.84363
C         -1.48313        0.26193       -0.27619
H         -2.55131        0.44636       -0.43459
C         -2.20859        0.19591        2.15088
C         -1.51192        0.06539        3.32106
H         -1.92837        0.05237        4.32754
C         -0.15484       -0.07342        2.97291
C         -3.68020        0.28573        1.90368
H         -3.95395        1.16540        1.29577
H         -4.20822        0.37553        2.86350
H         -4.06170       -0.61683        1.39840
C          1.01514       -0.27341        3.88550
H          1.96697       -0.17731        3.34273
H          0.97613       -1.26691        4.36597
H          1.00535        0.46808        4.70111
C         -1.28774        2.54239       -1.33738
C         -2.74729        2.73553       -1.58247
H         -3.15157        1.96978       -2.26714
H         -2.91753        3.71724       -2.04669
H         -3.33221        2.71228       -0.64576
N          0.61048        1.45463       -0.74160
C         -0.22151        3.37717       -1.55639
H         -0.26213        4.38278       -1.97302
C          0.93183        2.67043       -1.18096
C          2.36222        3.13008       -1.26342
H          3.05296        2.27709       -1.33590
H          2.63440        3.73851       -0.38227
H          2.51043        3.77034       -2.14655

