%nproc=4
%mem=12gb
#p UB3LYP/def2TZVP IOp(3/76=1000001500) IOp(3/77=0720008500) IOp(3/78=0810010000) scf=(maxconventionalcycles=120,xqc) int=ultrafine
#p EmpiricalDispersion=GD3BJ

PUVMEA_1_opt_2_SPE

0 2
Fe         0.15409       -0.46430        1.08773
Cl         1.32291       -0.17532        2.98898
Cl        -0.31022       -2.71347        1.32901
N         -3.24655       -0.76828       -2.56265
O         -1.52653        0.31579        1.71430
O         -3.59881        0.99121        1.30767
N         -1.17513       -0.53456       -0.73334
N          1.82696       -0.80218       -0.24249
C          3.42904        0.15911       -1.72294
H          3.83346        1.04052       -2.22312
N          0.69881        1.48950        0.34292
C         -0.95965       -1.05076       -1.93984
H          0.04580       -1.40981       -2.17399
C         -2.01222       -1.17762       -2.82955
H         -1.84126       -1.63848       -3.81167
C         -3.45325       -0.20175       -1.36467
C         -2.39947       -0.10658       -0.42491
C         -2.55634        0.44307        0.95470
C          2.33249        0.27154       -0.87975
C          4.00669       -1.07083       -1.91369
H          4.87511       -1.16901       -2.57309
C          3.49126       -2.17150       -1.27087
H          3.92776       -3.16598       -1.39475
C          2.41130       -2.00112       -0.44137
H          1.93900       -2.82284        0.11165
C          1.68073        1.55667       -0.57826
C          0.09339        2.62361        0.71616
H         -0.67842        2.50099        1.48390
C          0.42201        3.84515        0.17972
H         -0.10774        4.73848        0.52140
C          1.39837        3.91400       -0.77728
H          1.67358        4.87202       -1.22914
C          2.04915        2.76180       -1.15271
H          2.84159        2.79634       -1.90229
N         -4.68640        0.24991       -1.09633
H         -5.41619        0.10497       -1.78337
H         -4.83711        0.66859       -0.17341

