%nproc=4
%mem=12gb
#p UB3LYP/def2TZVP IOp(3/76=1000001500) IOp(3/77=0720008500) IOp(3/78=0810010000) scf=(maxconventionalcycles=120,xqc) int=ultrafine
#p EmpiricalDispersion=GD3BJ

QEFDUC_1_opt_2_SPE

0 2
Fe         0.01173       -0.59283        0.17858
Cl         0.29421       -2.86448       -0.36214
Cl         0.30331       -0.99467        2.46200
N          2.13373       -0.23251       -0.15915
N          3.06294       -1.23982       -0.14533
H          2.68181       -2.18581       -0.03391
C          2.82532        0.87857       -0.45058
H          2.31020        1.83519       -0.51972
C          4.19307        0.58736       -0.62983
H          4.99532        1.28301       -0.86975
C          4.31617       -0.79401       -0.42178
C          5.48379       -1.74454       -0.51008
H          5.34823       -2.46024       -1.33947
H          5.59863       -2.32265        0.42259
H          6.41438       -1.18555       -0.68686
C         -4.27066       -1.24990        0.93251
H         -5.13086       -1.55505        1.52617
C         -4.27557       -0.85893       -0.39916
C         -5.36555       -0.74934       -1.44750
H         -5.18861       -1.45836       -2.27451
H         -5.40946        0.26766       -1.87307
H         -6.34347       -0.97932       -0.99947
N         -2.12737       -0.75966        0.34781
N         -2.97189       -0.55766       -0.70847
H         -2.51539       -0.30960       -1.59681
C         -2.93102       -1.17857        1.35196
H         -2.47579       -1.40443        2.31658
N         -0.10305        1.56656        0.60495
N         -0.31140        2.52273       -0.36671
H         -0.48975        2.14551       -1.30860
C          0.16646        3.66297        1.43353
H          0.35451        4.47892        2.13026
C         -0.16828        3.78740        0.09778
C         -0.34363        5.00600       -0.77892
H         -1.39378        5.12112       -1.09910
H          0.28085        4.93947       -1.68598
H         -0.05329        5.90886       -0.22236
C          0.18910        2.29102        1.72117
H          0.40149        1.75111        2.64405
Cl        -0.38493        0.01316       -2.19277

