%nproc=4
%mem=12gb
#p UB3LYP/def2TZVP IOp(3/76=1000001500) IOp(3/77=0720008500) IOp(3/78=0810010000) scf=(maxconventionalcycles=120,xqc) int=ultrafine
#p EmpiricalDispersion=GD3BJ

QETDOI_1_opt_1_SPE

2 1
Fe        -0.00000        0.00000       -0.00000
S          0.99798       -2.28828       -0.04815
O         -0.27551       -0.19997        2.06368
N          2.15467        0.63959        0.22692
N          3.04207       -0.46546        0.13404
N          3.73148       -2.43618       -0.06278
N          4.87780       -1.65309       -0.00750
C          2.60777       -1.74594       -0.00257
C          4.44089       -0.42971        0.12435
C          5.20638        0.80769        0.25613
C          6.69015        0.63850       -0.13651
C          7.47711        1.92856       -0.09130
H          0.20050       -0.89735        2.54639
H         -0.36476        0.57554        2.64331
H          2.34153        1.27796       -0.55613
H          2.33896        1.14280        1.10245
H          3.82336       -3.44591       -0.17323
H          4.74087        1.59209       -0.37307
H          5.13100        1.17372        1.30060
H          7.13907       -0.11607        0.53220
H          6.72788        0.19956       -1.14911
H          8.52555        1.75098       -0.37758
H          7.06883        2.68308       -0.78666
H          7.48297        2.37173        0.91993
O          0.27551        0.19997       -2.06368
H         -0.20050        0.89735       -2.54639
H          0.36476       -0.57554       -2.64331
S         -0.99798        2.28828        0.04815
N         -2.15467       -0.63959       -0.22692
N         -3.04206        0.46546       -0.13404
N         -3.73148        2.43618        0.06278
N         -4.87780        1.65308        0.00750
C         -2.60777        1.74594        0.00257
C         -4.44089        0.42971       -0.12435
C         -5.20639       -0.80769       -0.25613
C         -6.69015       -0.63850        0.13651
C         -7.47711       -1.92856        0.09130
H         -2.34153       -1.27796        0.55613
H         -2.33896       -1.14280       -1.10245
H         -3.82337        3.44591        0.17323
H         -4.74087       -1.59209        0.37307
H         -5.13100       -1.17371       -1.30060
H         -7.13907        0.11607       -0.53220
H         -6.72788       -0.19956        1.14911
H         -8.52555       -1.75098        0.37758
H         -7.06883       -2.68308        0.78666
H         -7.48297       -2.37173       -0.91993

