%nproc=4
%mem=12gb
#p UB3LYP/def2TZVP IOp(3/76=1000001500) IOp(3/77=0720008500) IOp(3/78=0810010000) scf=(maxconventionalcycles=120,xqc) int=ultrafine
#p EmpiricalDispersion=GD3BJ

TEVWUN_1_opt_1_SPE

0 1
Fe         0.00000        1.64274       -0.00000
O          1.50110        3.04232        0.24934
O         -1.50110        3.04232       -0.24934
H          1.74221        3.41618       -0.61722
H         -1.74221        3.41619        0.61721
H          2.33269        2.68134        0.60662
H         -2.33269        2.68134       -0.60661
O          0.51597        1.76145       -2.13800
O         -0.51597        1.76145        2.13800
H          1.08317        0.99284       -2.32868
H         -1.08317        0.99284        2.32867
H         -0.24675        1.66846       -2.73351
H          0.24675        1.66845        2.73351
N         -1.31307       -0.07787       -0.17011
N          1.31307       -0.07787        0.17012
C         -2.65853        0.00914       -0.20763
C          2.65853        0.00914        0.20763
H         -3.16465        0.97786       -0.31481
H          3.16465        0.97786        0.31481
O          5.67931       -1.93308       -0.25415
O          5.45864        0.21522        0.27794
C          4.99132       -0.92626        0.04768
C          3.48422       -1.09667        0.09191
C         -0.74417       -1.29858       -0.02556
C          0.74417       -1.29858        0.02556
C          2.89683       -2.34605       -0.05678
H          3.57358       -3.19869       -0.17795
C          1.50567       -2.44514       -0.08269
H          1.01986       -3.41450       -0.21250
C         -2.89683       -2.34605        0.05678
H         -3.57358       -3.19869        0.17795
C         -1.50567       -2.44514        0.08269
H         -1.01986       -3.41450        0.21250
O         -5.67931       -1.93308        0.25415
O         -5.45864        0.21522       -0.27794
C         -3.48422       -1.09667       -0.09191
C         -4.99132       -0.92626       -0.04768

