%nproc=4
%mem=12gb
#p UB3LYP/def2TZVP IOp(3/76=1000001500) IOp(3/77=0720008500) IOp(3/78=0810010000) scf=(maxconventionalcycles=120,xqc) int=ultrafine
#p EmpiricalDispersion=GD3BJ

ZIBTUC_1_opt_2_SPE

1 2
N         -0.51711        2.04666        0.16165
N          1.21305        0.03989        0.04767
N         -1.13198        0.05436       -1.70290
C          0.91840        2.42092        0.26275
H          1.09547        2.81539        1.27853
H          1.16796        3.23027       -0.44579
C          1.82302        1.23237        0.07701
C          1.90798       -1.10288       -0.02440
C         -0.51880       -1.11604       -2.36333
H          0.56885       -0.95043       -2.42668
H         -0.89403       -1.25216       -3.39401
C         -0.69911        1.37862       -2.18902
H         -1.13342        1.61706       -3.17697
H          0.39682        1.36290       -2.30902
C         -1.12765        2.39690       -1.15287
H         -0.85135        3.42215       -1.45724
H         -2.22101        2.35850       -1.01886
C          3.29509       -1.08821       -0.08015
C          3.94399        0.14405       -0.06682
H          5.03666        0.18456       -0.10925
C          3.21026        1.31972        0.01389
H          3.70431        2.29494        0.03801
H         -2.15777       -0.01443       -1.71590
C          1.08859       -2.36467        0.04631
H          1.44093       -3.11526       -0.68283
H          1.23677       -2.78899        1.05487
N         -0.36163       -2.09723       -0.11511
C         -0.85284       -2.31794       -1.50622
H         -1.94726       -2.43883       -1.44717
H         -0.43164       -3.24673       -1.93028
Fe        -0.84756       -0.06900        0.47522
Cl        -3.10078       -0.04671        0.69267
Cl        -0.26686       -0.25859        2.67386
H         -0.88789       -2.69002        0.53190
H          3.85830       -2.02390       -0.13216
H         -1.04523        2.49628        0.91410

